p cnf 7230 15
-3746 -3752 -4351 4352 0
3742 -4351 0
3742 -4353 0
-3744 4355 0
4355 -4357 0
3746 -4353 0
4354 -4355 0
3744 -4354 0
-4352 4353 0
-4349 4351 0
-3742 4350 0
4348 -4350 0
-4348 4349 0
3752 -4353 0
2038 -4357 0
